10
1 0 21
2 0 18
2 1 14
3 0 31
3 1 36
3 2 4
4 0 35
4 1 47
4 2 7
4 3 42
5 0 45
5 1 9
5 2 27
5 3 26
5 4 14
6 0 46
6 1 34
6 2 39
6 3 9
6 4 38
6 5 6
7 0 42
7 1 30
7 2 20
7 3 16
7 4 32
7 5 29
7 6 1
8 0 18
8 1 10
8 2 13
8 3 20
8 4 44
8 5 3
8 6 12
8 7 18
9 0 9
9 1 3
9 2 16
9 3 21
9 4 37
9 5 50
9 6 39
9 7 39
9 8 27
